2
38
0 42 40 55 22 48 23 17 49 24 54 30 9 37 64 65 10 58 13 52 34 6 45 33 51 26 44 28 47 29 3 75 74 67 5 50 32 72
39
0 62 15 2 43 31 8 38 71 57 11 39 16 25 66 7 18 53 12 56 14 4 36 19 69 59 70 68 35 46 20 60 27 73 1 61 21 63 41
